x low 5.00
p edge 808 2312
n 0 1.00
n 20 1.00
n 13 1.00
n 2 1.00
n 23 1.00
n 27 1.00
n 17 1.00
n 10 1.00
n 3 1.00
n 5 1.00
n 11 1.00
n 7 1.00
n 19 1.00
n 12 1.00
n 18 1.00
n 14 1.00
n 16 1.00
n 32 1.00
n 47 1.00
n 43 1.00
n 35 1.00
n 45 1.00
n 37 1.00
n 50 1.00
n 22 1.00
n 44 1.00
n 30 1.00
n 26 1.00
n 36 1.00
n 53 1.00
n 39 1.00
n 40 1.00
n 61 1.00
n 38 1.00
n 117 1.00
n 104 1.00
n 68 1.00
n 48 1.00
n 49 1.00
n 52 1.00
n 56 1.00
n 95 1.00
n 82 1.00
n 111 1.00
n 98 1.00
n 87 1.00
n 41 1.00
n 54 1.00
n 66 1.00
n 51 1.00
n 70 1.00
n 65 1.00
n 58 1.00
n 99 1.00
n 88 1.00
n 71 1.00
n 60 1.00
n 62 1.00
n 63 1.00
n 74 1.00
n 77 1.00
n 78 1.00
n 86 1.00
n 108 1.00
n 84 1.00
n 79 1.00
n 76 1.00
n 85 1.00
n 90 1.00
n 127 1.00
n 69 1.00
n 125 1.00
n 73 1.00
n 91 1.00
n 83 1.00
n 101 1.00
n 81 1.00
n 94 1.00
n 118 1.00
n 115 1.00
n 110 1.00
n 97 1.00
n 124 1.00
n 105 1.00
n 102 1.00
n 137 1.00
n 106 1.00
n 114 1.00
n 145 1.00
n 146 1.00
n 107 1.00
n 112 1.00
n 122 1.00
n 120 1.00
n 139 1.00
n 135 1.00
n 144 1.00
n 155 1.00
n 121 1.00
n 130 1.00
n 151 1.00
n 129 1.00
n 150 1.00
n 132 1.00
n 143 1.00
n 166 1.00
n 169 1.00
n 172 1.00
n 164 1.00
n 133 1.00
n 134 1.00
n 140 1.00
n 147 1.00
n 141 1.00
n 153 1.00
n 156 1.00
n 149 1.00
n 148 1.00
n 193 1.00
n 177 1.00
n 182 1.00
n 158 1.00
n 167 1.00
n 188 1.00
n 201 1.00
n 195 1.00
n 178 1.00
n 154 1.00
n 160 1.00
n 170 1.00
n 157 1.00
n 222 1.00
n 162 1.00
n 173 1.00
n 210 1.00
n 168 1.00
n 175 1.00
n 204 1.00
n 181 1.00
n 199 1.00
n 187 1.00
n 183 1.00
n 208 1.00
n 194 1.00
n 180 1.00
n 191 1.00
n 186 1.00
n 205 1.00
n 189 1.00
n 218 1.00
n 219 1.00
n 200 1.00
n 196 1.00
n 207 1.00
n 213 1.00
n 232 1.00
n 239 1.00
n 215 1.00
n 214 1.00
n 246 1.00
n 220 1.00
n 226 1.00
n 267 1.00
n 258 1.00
n 224 1.00
n 238 1.00
n 216 1.00
n 212 1.00
n 240 1.00
n 233 1.00
n 229 1.00
n 223 1.00
n 251 1.00
n 242 1.00
n 230 1.00
n 236 1.00
n 253 1.00
n 234 1.00
n 256 1.00
n 235 1.00
n 244 1.00
n 245 1.00
n 261 1.00
n 266 1.00
n 273 1.00
n 241 1.00
n 265 1.00
n 257 1.00
n 271 1.00
n 252 1.00
n 283 1.00
n 281 1.00
n 260 1.00
n 296 1.00
n 305 1.00
n 263 1.00
n 249 1.00
n 286 1.00
n 292 1.00
n 297 1.00
n 288 1.00
n 291 1.00
n 270 1.00
n 255 1.00
n 275 1.00
n 276 1.00
n 268 1.00
n 279 1.00
n 287 1.00
n 294 1.00
n 322 1.00
n 306 1.00
n 303 1.00
n 280 1.00
n 300 1.00
n 325 1.00
n 285 1.00
n 321 1.00
n 310 1.00
n 315 1.00
n 298 1.00
n 295 1.00
n 302 1.00
n 329 1.00
n 307 1.00
n 324 1.00
n 348 1.00
n 311 1.00
n 343 1.00
n 330 1.00
n 340 1.00
n 341 1.00
n 313 1.00
n 320 1.00
n 318 1.00
n 338 1.00
n 349 1.00
n 336 1.00
n 328 1.00
n 314 1.00
n 362 1.00
n 319 1.00
n 335 1.00
n 372 1.00
n 342 1.00
n 381 1.00
n 353 1.00
n 333 1.00
n 363 1.00
n 327 1.00
n 345 1.00
n 355 1.00
n 379 1.00
n 357 1.00
n 364 1.00
n 361 1.00
n 359 1.00
n 371 1.00
n 375 1.00
n 387 1.00
n 417 1.00
n 358 1.00
n 370 1.00
n 367 1.00
n 404 1.00
n 383 1.00
n 386 1.00
n 391 1.00
n 366 1.00
n 420 1.00
n 384 1.00
n 393 1.00
n 368 1.00
n 377 1.00
n 385 1.00
n 399 1.00
n 436 1.00
n 445 1.00
n 388 1.00
n 426 1.00
n 390 1.00
n 397 1.00
n 415 1.00
n 412 1.00
n 408 1.00
n 440 1.00
n 395 1.00
n 432 1.00
n 394 1.00
n 398 1.00
n 421 1.00
n 396 1.00
n 434 1.00
n 452 1.00
n 401 1.00
n 400 1.00
n 413 1.00
n 403 1.00
n 407 1.00
n 423 1.00
n 406 1.00
n 410 1.00
n 419 1.00
n 425 1.00
n 428 1.00
n 429 1.00
n 431 1.00
n 414 1.00
n 449 1.00
n 443 1.00
n 427 1.00
n 433 1.00
n 447 1.00
n 442 1.00
n 451 1.00
n 437 1.00
n 439 1.00
n 444 1.00
n 456 1.00
n 461 1.00
n 438 1.00
n 473 1.00
n 480 1.00
n 462 1.00
n 459 1.00
n 453 1.00
n 466 1.00
n 508 1.00
n 512 1.00
n 492 1.00
n 468 1.00
n 475 1.00
n 476 1.00
n 455 1.00
n 470 1.00
n 463 1.00
n 457 1.00
n 460 1.00
n 490 1.00
n 486 1.00
n 497 1.00
n 502 1.00
n 482 1.00
n 478 1.00
n 485 1.00
n 493 1.00
n 471 1.00
n 481 1.00
n 479 1.00
n 483 1.00
n 513 1.00
n 523 1.00
n 501 1.00
n 527 1.00
n 509 1.00
n 505 1.00
n 494 1.00
n 484 1.00
n 489 1.00
n 496 1.00
n 520 1.00
n 521 1.00
n 518 1.00
n 500 1.00
n 529 1.00
n 491 1.00
n 506 1.00
n 504 1.00
n 532 1.00
n 511 1.00
n 545 1.00
n 515 1.00
n 524 1.00
n 530 1.00
n 526 1.00
n 554 1.00
n 528 1.00
n 565 1.00
n 536 1.00
n 542 1.00
n 574 1.00
n 539 1.00
n 572 1.00
n 525 1.00
n 533 1.00
n 580 1.00
n 541 1.00
n 535 1.00
n 560 1.00
n 534 1.00
n 544 1.00
n 538 1.00
n 549 1.00
n 550 1.00
n 570 1.00
n 543 1.00
n 559 1.00
n 603 1.00
n 548 1.00
n 547 1.00
n 575 1.00
n 551 1.00
n 556 1.00
n 553 1.00
n 557 1.00
n 566 1.00
n 564 1.00
n 571 1.00
n 558 1.00
n 563 1.00
n 562 1.00
n 598 1.00
n 595 1.00
n 599 1.00
n 569 1.00
n 578 1.00
n 591 1.00
n 594 1.00
n 588 1.00
n 614 1.00
n 609 1.00
n 577 1.00
n 582 1.00
n 597 1.00
n 592 1.00
n 584 1.00
n 610 1.00
n 625 1.00
n 600 1.00
n 585 1.00
n 622 1.00
n 583 1.00
n 590 1.00
n 641 1.00
n 601 1.00
n 624 1.00
n 620 1.00
n 596 1.00
n 618 1.00
n 615 1.00
n 629 1.00
n 602 1.00
n 604 1.00
n 900 1.00
n 758 1.00
n 755 1.00
n 687 1.00
n 684 1.00
n 675 1.00
n 671 1.00
n 749 1.00
n 738 1.00
n 733 1.00
n 694 1.00
n 727 1.00
n 709 1.00
n 702 1.00
n 717 1.00
n 666 1.00
n 656 1.00
n 649 1.00
n 627 1.00
n 621 1.00
n 637 1.00
n 612 1.00
n 606 1.00
n 628 1.00
n 639 1.00
n 646 1.00
n 613 1.00
n 617 1.00
n 607 1.00
n 647 1.00
n 635 1.00
n 634 1.00
n 632 1.00
n 667 1.00
n 638 1.00
n 630 1.00
n 710 1.00
n 670 1.00
n 644 1.00
n 636 1.00
n 643 1.00
n 661 1.00
n 651 1.00
n 640 1.00
n 669 1.00
n 654 1.00
n 650 1.00
n 653 1.00
n 657 1.00
n 672 1.00
n 686 1.00
n 658 1.00
n 662 1.00
n 673 1.00
n 660 1.00
n 676 1.00
n 707 1.00
n 677 1.00
n 659 1.00
n 664 1.00
n 679 1.00
n 697 1.00
n 691 1.00
n 689 1.00
n 692 1.00
n 682 1.00
n 705 1.00
n 703 1.00
n 688 1.00
n 712 1.00
n 681 1.00
n 685 1.00
n 680 1.00
n 728 1.00
n 695 1.00
n 699 1.00
n 701 1.00
n 736 1.00
n 718 1.00
n 704 1.00
n 700 1.00
n 721 1.00
n 732 1.00
n 715 1.00
n 719 1.00
n 720 1.00
n 713 1.00
n 724 1.00
n 711 1.00
n 729 1.00
n 743 1.00
n 723 1.00
n 726 1.00
n 750 1.00
n 734 1.00
n 731 1.00
n 746 1.00
n 786 1.00
n 751 1.00
n 737 1.00
n 747 1.00
n 730 1.00
n 779 1.00
n 739 1.00
n 756 1.00
n 741 1.00
n 761 1.00
n 764 1.00
n 744 1.00
n 740 1.00
n 766 1.00
n 760 1.00
n 754 1.00
n 759 1.00
n 757 1.00
n 768 1.00
n 763 1.00
n 762 1.00
n 752 1.00
n 770 1.00
n 767 1.00
n 765 1.00
n 775 1.00
n 776 1.00
n 782 1.00
n 769 1.00
n 772 1.00
n 785 1.00
n 778 1.00
n 773 1.00
n 805 1.00
n 777 1.00
n 783 1.00
n 799 1.00
n 781 1.00
n 784 1.00
n 794 1.00
n 809 1.00
n 802 1.00
n 788 1.00
n 795 1.00
n 792 1.00
n 796 1.00
n 780 1.00
n 808 1.00
n 791 1.00
n 790 1.00
n 842 1.00
n 853 1.00
n 798 1.00
n 812 1.00
n 801 1.00
n 826 1.00
n 807 1.00
n 815 1.00
n 819 1.00
n 804 1.00
n 825 1.00
n 814 1.00
n 806 1.00
n 811 1.00
n 817 1.00
n 813 1.00
n 847 1.00
n 873 1.00
n 832 1.00
n 818 1.00
n 849 1.00
n 834 1.00
n 822 1.00
n 821 1.00
n 841 1.00
n 820 1.00
n 835 1.00
n 839 1.00
n 827 1.00
n 824 1.00
n 830 1.00
n 829 1.00
n 837 1.00
n 845 1.00
n 831 1.00
n 833 1.00
n 836 1.00
n 844 1.00
n 880 1.00
n 861 1.00
n 858 1.00
n 851 1.00
n 846 1.00
n 843 1.00
n 848 1.00
n 855 1.00
n 876 1.00
n 859 1.00
n 852 1.00
n 869 1.00
n 856 1.00
n 854 1.00
n 865 1.00
n 879 1.00
n 860 1.00
n 863 1.00
n 874 1.00
n 882 1.00
n 864 1.00
n 867 1.00
n 868 1.00
n 884 1.00
n 886 1.00
n 871 1.00
n 877 1.00
n 887 1.00
n 875 1.00
n 893 1.00
n 890 1.00
n 904 1.00
n 885 1.00
n 906 1.00
n 881 1.00
n 892 1.00
n 907 1.00
n 896 1.00
n 897 1.00
n 889 1.00
n 895 1.00
n 927 1.00
n 903 1.00
n 916 1.00
n 918 1.00
n 913 1.00
n 937 1.00
n 925 1.00
n 891 1.00
n 901 1.00
n 899 1.00
n 894 1.00
n 931 1.00
n 910 1.00
n 898 1.00
n 945 1.00
n 922 1.00
n 908 1.00
n 911 1.00
n 936 1.00
n 912 1.00
n 920 1.00
n 929 1.00
n 914 1.00
n 919 1.00
n 921 1.00
n 924 1.00
n 934 1.00
n 964 1.00
n 943 1.00
n 941 1.00
n 933 1.00
n 949 1.00
n 955 1.00
n 935 1.00
n 965 1.00
n 972 1.00
n 944 1.00
n 948 1.00
n 971 1.00
n 932 1.00
n 939 1.00
n 950 1.00
n 953 1.00
n 947 1.00
n 958 1.00
n 952 1.00
n 957 1.00
n 982 1.00
n 988 1.00
n 963 1.00
n 983 1.00
n 1019 1.00
n 959 1.00
n 1004 1.00
n 960 1.00
n 956 1.00
n 961 1.00
n 985 1.00
n 968 1.00
n 987 1.00
n 991 1.00
n 967 1.00
n 962 1.00
n 990 1.00
n 977 1.00
n 999 1.00
n 978 1.00
n 974 1.00
n 998 1.00
n 992 1.00
n 1001 1.00
n 984 1.00
n 1026 1.00
n 979 1.00
n 980 1.00
n 994 1.00
n 986 1.00
n 996 1.00
n 1009 1.00
n 1025 1.00
n 1010 1.00
n 1048 1.00
n 1011 1.00
n 1006 1.00
n 1005 1.00
n 1002 1.00
n 1020 1.00
n 1021 1.00
n 1031 1.00
n 1037 1.00
n 1013 1.00
n 1012 1.00
n 1052 1.00
n 1081 1.00
n 1015 1.00
n 1016 1.00
n 1022 1.00
n 1023 1.00
n 1030 1.00
n 1046 1.00
n 1035 1.00
n 1042 1.00
n 1028 1.00
n 1027 1.00
n 1029 1.00
n 1053 1.00
n 1036 1.00
n 1032 1.00
n 1038 1.00
n 1047 1.00
n 1043 1.00
n 1039 1.00
n 1040 1.00
n 1062 1.00
n 1083 1.00
n 1054 1.00
n 1049 1.00
n 1044 1.00
n 1073 1.00
n 1067 1.00
n 1061 1.00
n 1051 1.00
n 1060 1.00
n 1066 1.00
n 1055 1.00
n 1059 1.00
n 1076 1.00
n 1070 1.00
n 1056 1.00
n 1058 1.00
n 1057 1.00
n 1068 1.00
n 1065 1.00
n 1071 1.00
n 1082 1.00
n 1077 1.00
n 1074 1.00
n 1079 1.00
n 1078 1.00
e 0 20
e 0 13
e 0 2
e 0 23
e 0 27
e 0 17
e 0 10
e 2 3
e 2 5
e 2 11
e 2 7
e 2 13
e 2 17
e 3 19
e 3 12
e 3 5
e 3 18
e 3 17
e 5 19
e 5 11
e 7 11
e 7 13
e 7 14
e 10 16
e 10 32
e 10 47
e 10 43
e 10 35
e 10 45
e 10 17
e 11 19
e 11 37
e 11 50
e 11 14
e 12 18
e 12 22
e 12 19
e 12 37
e 13 14
e 13 20
e 14 50
e 14 20
e 16 32
e 17 44
e 17 30
e 17 26
e 17 45
e 17 36
e 17 18
e 18 53
e 18 36
e 18 22
e 19 37
e 20 50
e 20 39
e 20 23
e 22 53
e 22 37
e 23 39
e 23 40
e 23 27
e 26 44
e 26 61
e 26 36
e 27 40
e 27 38
e 30 117
e 30 104
e 30 68
e 30 45
e 30 44
e 32 48
e 32 47
e 35 49
e 35 43
e 35 52
e 35 56
e 35 45
e 36 61
e 36 95
e 36 82
e 36 111
e 36 53
e 37 53
e 37 98
e 37 87
e 37 50
e 38 40
e 38 41
e 39 50
e 39 40
e 39 54
e 40 54
e 40 41
e 41 54
e 43 49
e 43 47
e 44 68
e 44 61
e 45 56
e 45 66
e 45 104
e 47 48
e 47 51
e 47 70
e 47 49
e 47 65
e 48 51
e 49 65
e 49 58
e 49 52
e 50 87
e 50 99
e 50 88
e 50 71
e 50 54
e 51 70
e 52 58
e 52 60
e 52 56
e 53 111
e 53 98
e 54 71
e 54 62
e 54 63
e 56 74
e 56 60
e 56 77
e 56 78
e 56 66
e 58 65
e 58 60
e 60 65
e 60 86
e 60 74
e 61 68
e 61 108
e 61 84
e 61 95
e 62 71
e 62 79
e 62 63
e 63 79
e 65 76
e 65 70
e 65 85
e 65 86
e 66 78
e 66 90
e 66 127
e 66 104
e 68 125
e 68 117
e 68 108
e 69 70
e 69 73
e 70 73
e 70 76
e 71 88
e 71 91
e 71 79
e 73 83
e 73 101
e 73 81
e 73 76
e 73 94
e 74 86
e 74 77
e 76 81
e 76 85
e 77 86
e 77 90
e 77 78
e 78 90
e 79 91
e 81 94
e 81 85
e 82 118
e 82 95
e 82 115
e 82 111
e 83 101
e 84 108
e 84 110
e 84 95
e 85 94
e 85 97
e 85 86
e 86 97
e 86 90
e 86 124
e 87 98
e 87 99
e 88 105
e 88 99
e 88 102
e 88 91
e 90 124
e 90 137
e 90 127
e 91 102
e 91 106
e 94 101
e 94 114
e 94 97
e 95 110
e 95 118
e 97 114
e 97 124
e 98 111
e 98 145
e 98 99
e 99 105
e 99 145
e 99 146
e 101 107
e 101 114
e 102 105
e 102 106
e 102 112
e 104 127
e 104 122
e 104 120
e 104 117
e 105 112
e 105 146
e 106 112
e 107 114
e 108 125
e 108 139
e 108 135
e 108 110
e 110 135
e 110 118
e 111 115
e 111 144
e 111 155
e 111 145
e 112 146
e 114 121
e 114 130
e 114 124
e 115 118
e 115 151
e 115 144
e 117 120
e 117 129
e 117 125
e 118 135
e 118 150
e 118 151
e 120 129
e 120 122
e 121 130
e 122 127
e 122 129
e 124 130
e 124 132
e 124 137
e 125 129
e 125 143
e 125 139
e 127 137
e 127 166
e 127 169
e 127 129
e 127 172
e 129 172
e 129 164
e 129 143
e 130 133
e 130 134
e 130 132
e 132 134
e 132 137
e 133 134
e 134 140
e 134 147
e 134 137
e 135 139
e 135 141
e 135 150
e 137 147
e 137 153
e 137 166
e 139 143
e 139 156
e 139 141
e 140 147
e 141 156
e 141 149
e 141 150
e 143 164
e 143 193
e 143 177
e 143 156
e 144 151
e 144 182
e 144 158
e 144 155
e 145 155
e 145 167
e 145 188
e 145 201
e 145 195
e 145 178
e 145 154
e 145 146
e 146 154
e 147 148
e 147 160
e 147 153
e 148 160
e 149 156
e 149 170
e 149 150
e 150 170
e 150 157
e 150 151
e 151 157
e 151 222
e 151 182
e 153 160
e 153 162
e 153 173
e 153 166
e 154 178
e 155 167
e 155 158
e 156 177
e 156 170
e 157 170
e 157 210
e 157 222
e 158 182
e 158 167
e 160 168
e 160 175
e 160 162
e 162 175
e 162 173
e 164 172
e 164 204
e 164 193
e 166 173
e 166 181
e 166 199
e 166 187
e 166 169
e 167 182
e 167 183
e 167 188
e 168 175
e 169 187
e 169 208
e 169 172
e 170 177
e 170 194
e 170 210
e 172 208
e 172 204
e 173 175
e 173 181
e 175 180
e 175 191
e 175 186
e 175 181
e 177 194
e 177 193
e 178 205
e 178 195
e 178 189
e 180 191
e 181 186
e 181 218
e 181 199
e 182 222
e 182 219
e 182 200
e 182 183
e 183 200
e 183 196
e 183 188
e 186 191
e 186 207
e 186 218
e 187 199
e 187 213
e 187 208
e 188 196
e 188 201
e 189 205
e 191 207
e 193 204
e 193 232
e 193 194
e 193 239
e 194 239
e 194 210
e 195 201
e 195 215
e 195 205
e 196 200
e 196 214
e 196 246
e 196 201
e 199 218
e 199 220
e 199 226
e 199 213
e 200 219
e 200 214
e 201 246
e 201 267
e 201 258
e 201 215
e 204 208
e 204 224
e 204 238
e 204 232
e 205 215
e 205 216
e 207 218
e 207 212
e 208 213
e 208 224
e 210 239
e 210 240
e 210 233
e 210 222
e 212 229
e 212 218
e 213 226
e 213 223
e 213 251
e 213 242
e 213 224
e 214 219
e 214 230
e 214 236
e 214 246
e 215 258
e 215 253
e 215 216
e 215 234
e 218 229
e 218 256
e 218 220
e 219 222
e 219 230
e 220 256
e 220 235
e 220 226
e 222 233
e 222 244
e 222 245
e 222 261
e 222 266
e 222 230
e 223 226
e 223 235
e 223 273
e 223 251
e 224 242
e 224 238
e 226 235
e 229 241
e 229 256
e 230 266
e 230 236
e 232 238
e 232 265
e 232 239
e 233 240
e 233 257
e 233 271
e 233 252
e 233 244
e 234 253
e 235 256
e 235 283
e 235 273
e 236 266
e 236 281
e 236 246
e 238 242
e 238 260
e 238 265
e 239 265
e 239 296
e 239 305
e 239 263
e 239 240
e 240 263
e 240 257
e 241 256
e 242 249
e 242 251
e 242 260
e 244 252
e 244 245
e 245 252
e 245 286
e 245 261
e 246 281
e 246 292
e 246 297
e 246 288
e 246 267
e 249 251
e 249 291
e 249 270
e 249 260
e 251 275
e 251 273
e 251 291
e 252 271
e 252 286
e 253 276
e 253 258
e 253 268
e 255 279
e 255 256
e 256 279
e 256 287
e 256 283
e 257 263
e 257 294
e 257 271
e 258 322
e 258 267
e 258 276
e 260 270
e 260 265
e 261 286
e 261 306
e 261 266
e 263 305
e 263 303
e 263 294
e 265 270
e 265 280
e 265 296
e 266 306
e 266 281
e 267 288
e 267 322
e 268 276
e 270 291
e 270 300
e 270 280
e 270 325
e 271 294
e 271 286
e 273 283
e 273 285
e 273 321
e 273 275
e 275 321
e 275 310
e 275 291
e 276 322
e 276 315
e 276 298
e 279 295
e 279 302
e 279 287
e 280 325
e 280 296
e 281 306
e 281 329
e 281 307
e 281 292
e 283 287
e 283 324
e 283 348
e 283 285
e 285 348
e 285 321
e 286 294
e 286 311
e 286 343
e 286 306
e 287 302
e 287 324
e 288 297
e 288 330
e 288 322
e 291 310
e 291 300
e 292 307
e 292 297
e 294 303
e 294 311
e 295 302
e 296 325
e 296 340
e 296 305
e 297 307
e 297 341
e 297 330
e 298 315
e 300 310
e 300 313
e 300 325
e 302 320
e 302 324
e 303 318
e 303 305
e 303 338
e 303 311
e 305 340
e 305 318
e 306 343
e 306 349
e 306 336
e 306 329
e 307 329
e 307 341
e 310 328
e 310 321
e 310 314
e 310 313
e 311 338
e 311 362
e 311 343
e 313 319
e 313 314
e 313 325
e 314 328
e 314 335
e 314 319
e 315 322
e 315 372
e 315 342
e 318 340
e 318 381
e 318 338
e 319 335
e 319 353
e 319 325
e 319 333
e 320 324
e 321 348
e 321 328
e 322 330
e 322 363
e 322 372
e 324 327
e 324 345
e 324 355
e 324 348
e 325 333
e 325 340
e 327 345
e 328 348
e 328 379
e 328 335
e 329 336
e 329 357
e 329 341
e 330 341
e 330 364
e 330 363
e 333 353
e 333 361
e 333 340
e 335 379
e 335 359
e 335 353
e 336 349
e 336 371
e 336 357
e 338 381
e 338 362
e 340 361
e 340 375
e 340 381
e 341 357
e 341 364
e 342 372
e 343 362
e 343 387
e 343 417
e 343 349
e 345 358
e 345 370
e 345 355
e 348 355
e 348 379
e 349 417
e 349 371
e 353 359
e 353 367
e 353 361
e 355 370
e 355 404
e 355 379
e 357 371
e 357 383
e 357 364
e 358 370
e 359 379
e 359 386
e 359 391
e 359 367
e 361 367
e 361 375
e 362 381
e 362 387
e 363 364
e 363 420
e 363 384
e 363 372
e 364 383
e 364 393
e 364 420
e 366 377
e 366 370
e 367 391
e 367 375
e 368 385
e 368 372
e 370 377
e 370 399
e 370 404
e 371 417
e 371 436
e 371 393
e 371 383
e 371 445
e 372 384
e 372 388
e 372 385
e 375 391
e 375 426
e 375 381
e 377 390
e 377 397
e 377 399
e 379 404
e 379 415
e 379 386
e 381 426
e 381 412
e 381 408
e 381 387
e 383 393
e 384 420
e 384 388
e 384 440
e 385 388
e 385 395
e 386 415
e 386 432
e 386 394
e 386 391
e 387 408
e 387 398
e 387 417
e 388 440
e 388 421
e 388 395
e 390 397
e 390 396
e 391 394
e 391 434
e 391 426
e 393 445
e 393 452
e 393 420
e 394 432
e 394 434
e 396 401
e 396 400
e 396 397
e 397 401
e 397 399
e 398 408
e 398 413
e 398 417
e 399 401
e 399 403
e 399 407
e 399 423
e 399 404
e 400 403
e 400 401
e 401 403
e 403 406
e 403 410
e 403 407
e 404 423
e 404 415
e 406 410
e 407 410
e 407 419
e 407 425
e 407 428
e 407 423
e 408 429
e 408 412
e 408 431
e 408 413
e 410 414
e 410 419
e 412 426
e 412 449
e 412 429
e 413 431
e 413 417
e 414 419
e 415 423
e 415 443
e 415 432
e 417 431
e 417 436
e 419 427
e 419 425
e 420 452
e 420 440
e 421 440
e 423 433
e 423 428
e 423 447
e 423 443
e 425 427
e 425 442
e 425 451
e 425 433
e 425 428
e 426 434
e 426 449
e 427 442
e 428 433
e 429 449
e 429 437
e 429 431
e 431 437
e 431 439
e 431 436
e 432 443
e 432 444
e 432 434
e 433 451
e 433 447
e 434 444
e 434 456
e 434 461
e 434 449
e 436 439
e 436 445
e 437 449
e 437 473
e 437 480
e 437 462
e 437 439
e 438 459
e 438 440
e 439 462
e 439 445
e 440 452
e 440 453
e 440 459
e 442 451
e 443 447
e 443 466
e 443 444
e 444 466
e 444 508
e 444 512
e 444 492
e 444 456
e 445 462
e 445 468
e 445 475
e 445 476
e 445 452
e 447 451
e 447 466
e 449 461
e 449 473
e 451 455
e 451 466
e 452 476
e 452 470
e 452 463
e 452 453
e 453 463
e 453 457
e 453 459
e 455 466
e 455 460
e 456 492
e 456 461
e 457 463
e 457 490
e 457 486
e 457 459
e 459 486
e 459 497
e 459 502
e 459 482
e 460 478
e 460 466
e 461 492
e 461 485
e 461 493
e 461 473
e 462 480
e 462 468
e 463 471
e 463 470
e 463 481
e 463 490
e 466 478
e 466 479
e 466 508
e 468 480
e 468 483
e 468 475
e 470 476
e 470 471
e 471 476
e 471 481
e 473 493
e 473 513
e 473 523
e 473 480
e 475 483
e 475 501
e 475 527
e 475 509
e 475 476
e 476 509
e 476 505
e 476 481
e 476 494
e 478 484
e 478 489
e 478 479
e 479 489
e 479 496
e 479 520
e 479 521
e 479 508
e 480 523
e 480 518
e 480 501
e 480 483
e 481 494
e 481 490
e 482 502
e 483 501
e 484 489
e 485 492
e 485 500
e 485 493
e 486 490
e 486 529
e 486 497
e 489 491
e 489 496
e 490 494
e 490 506
e 490 529
e 491 496
e 492 512
e 492 504
e 492 500
e 493 500
e 493 532
e 493 513
e 494 506
e 494 505
e 496 511
e 496 520
e 497 529
e 497 545
e 497 502
e 500 504
e 500 515
e 500 532
e 501 518
e 501 524
e 501 527
e 502 545
e 502 530
e 504 512
e 504 526
e 504 515
e 505 509
e 505 554
e 505 506
e 506 554
e 506 529
e 508 521
e 508 528
e 508 512
e 509 527
e 509 565
e 509 554
e 511 520
e 512 528
e 512 536
e 512 542
e 512 574
e 512 526
e 513 532
e 513 539
e 513 523
e 515 526
e 515 532
e 518 523
e 518 572
e 518 524
e 520 525
e 520 533
e 520 528
e 520 521
e 521 528
e 523 539
e 523 580
e 523 572
e 524 572
e 524 527
e 525 533
e 526 574
e 526 541
e 526 532
e 527 572
e 527 565
e 528 533
e 528 535
e 528 536
e 529 554
e 529 560
e 529 545
e 530 545
e 532 541
e 532 539
e 533 534
e 533 544
e 533 538
e 533 535
e 534 544
e 535 538
e 535 536
e 536 538
e 536 549
e 536 542
e 538 544
e 538 550
e 538 549
e 539 541
e 539 570
e 539 580
e 541 574
e 541 570
e 542 549
e 542 559
e 542 603
e 542 574
e 543 544
e 543 548
e 543 547
e 544 548
e 544 550
e 545 560
e 545 575
e 545 551
e 547 556
e 547 548
e 548 556
e 548 553
e 548 550
e 549 550
e 549 559
e 550 553
e 550 557
e 550 559
e 551 575
e 553 556
e 553 566
e 553 564
e 553 557
e 554 565
e 554 571
e 554 560
e 556 558
e 556 563
e 556 566
e 557 564
e 557 559
e 558 563
e 558 562
e 559 564
e 559 598
e 559 603
e 560 571
e 560 595
e 560 599
e 560 575
e 562 569
e 562 563
e 563 569
e 563 566
e 564 566
e 564 578
e 564 591
e 564 594
e 564 598
e 565 572
e 565 588
e 565 614
e 565 609
e 565 571
e 566 569
e 566 578
e 569 577
e 569 582
e 569 578
e 570 574
e 570 597
e 570 580
e 571 609
e 571 592
e 571 595
e 572 584
e 572 580
e 572 588
e 574 603
e 574 610
e 574 597
e 575 599
e 575 625
e 575 600
e 577 582
e 578 582
e 578 585
e 578 591
e 580 597
e 580 622
e 580 584
e 582 583
e 582 590
e 582 585
e 583 590
e 584 622
e 584 641
e 584 588
e 585 590
e 585 601
e 585 591
e 588 641
e 588 624
e 588 620
e 588 614
e 590 596
e 590 601
e 591 601
e 591 594
e 592 609
e 592 618
e 592 615
e 592 629
e 592 595
e 594 601
e 594 602
e 594 598
e 595 629
e 595 604
e 595 599
e 596 900
e 596 758
e 596 755
e 596 687
e 596 684
e 596 675
e 596 671
e 596 749
e 596 738
e 596 733
e 596 694
e 596 727
e 596 709
e 596 702
e 596 717
e 596 666
e 596 656
e 596 601
e 596 649
e 596 627
e 596 621
e 596 637
e 596 612
e 596 606
e 597 610
e 597 628
e 597 639
e 597 646
e 597 622
e 598 613
e 598 602
e 598 617
e 598 607
e 598 603
e 599 604
e 599 625
e 600 625
e 601 606
e 601 602
e 602 606
e 602 612
e 602 613
e 603 607
e 603 610
e 604 629
e 604 647
e 604 635
e 604 625
e 606 612
e 607 617
e 607 610
e 609 614
e 609 634
e 609 618
e 610 617
e 610 628
e 612 621
e 612 613
e 613 621
e 613 627
e 613 617
e 613 637
e 614 620
e 614 634
e 615 618
e 615 632
e 615 629
e 617 637
e 617 649
e 617 667
e 617 628
e 617 638
e 618 634
e 618 632
e 620 624
e 620 634
e 621 627
e 622 646
e 622 630
e 622 641
e 624 641
e 624 710
e 624 670
e 624 634
e 625 635
e 625 644
e 625 636
e 627 637
e 628 638
e 628 639
e 629 632
e 629 643
e 629 661
e 629 651
e 629 647
e 630 646
e 630 640
e 630 641
e 632 643
e 632 634
e 634 670
e 634 669
e 634 643
e 635 647
e 635 654
e 635 644
e 636 644
e 637 649
e 638 667
e 638 650
e 638 639
e 639 650
e 639 646
e 640 646
e 640 653
e 640 657
e 640 641
e 641 657
e 641 672
e 641 686
e 641 710
e 643 669
e 643 658
e 643 661
e 644 654
e 644 662
e 644 673
e 644 660
e 646 650
e 646 676
e 646 707
e 646 677
e 646 653
e 647 659
e 647 651
e 647 654
e 649 656
e 649 667
e 650 667
e 650 676
e 651 661
e 651 659
e 653 677
e 653 657
e 654 659
e 654 664
e 654 662
e 656 666
e 656 667
e 657 677
e 657 672
e 658 669
e 658 679
e 658 697
e 658 691
e 658 661
e 659 689
e 659 661
e 659 692
e 659 664
e 660 673
e 661 691
e 661 689
e 662 664
e 662 682
e 662 673
e 664 692
e 664 705
e 664 682
e 666 671
e 666 667
e 667 671
e 667 703
e 667 688
e 667 676
e 669 679
e 669 670
e 670 710
e 670 712
e 670 681
e 670 679
e 671 675
e 671 703
e 672 677
e 672 685
e 672 686
e 673 682
e 673 680
e 675 684
e 675 703
e 676 688
e 676 728
e 676 707
e 677 707
e 677 695
e 677 685
e 679 681
e 679 697
e 680 682
e 681 712
e 681 699
e 681 697
e 682 705
e 682 701
e 684 687
e 684 703
e 685 695
e 685 686
e 686 695
e 686 736
e 686 710
e 687 694
e 687 703
e 688 703
e 688 718
e 688 728
e 689 691
e 689 704
e 689 700
e 689 692
e 689 721
e 691 697
e 691 699
e 691 704
e 692 700
e 692 705
e 694 702
e 694 703
e 695 707
e 695 732
e 695 736
e 697 699
e 699 712
e 699 715
e 699 719
e 699 720
e 699 704
e 700 721
e 700 705
e 701 705
e 702 709
e 702 703
e 703 709
e 703 718
e 704 720
e 704 713
e 704 721
e 705 721
e 705 724
e 705 711
e 707 728
e 707 732
e 709 717
e 709 718
e 710 736
e 710 729
e 710 743
e 710 723
e 710 712
e 711 724
e 712 723
e 712 715
e 713 720
e 713 726
e 713 721
e 715 723
e 715 719
e 717 727
e 717 718
e 718 727
e 718 750
e 718 734
e 718 728
e 719 723
e 719 731
e 719 746
e 719 720
e 720 746
e 720 726
e 720 786
e 721 726
e 721 724
e 721 751
e 723 737
e 723 743
e 723 731
e 724 751
e 724 747
e 724 730
e 726 786
e 726 779
e 726 751
e 727 733
e 727 750
e 728 734
e 728 739
e 728 756
e 728 741
e 728 732
e 729 761
e 729 736
e 729 764
e 729 743
e 730 747
e 731 737
e 731 744
e 731 746
e 732 741
e 732 740
e 732 736
e 733 738
e 733 750
e 734 750
e 734 766
e 734 739
e 736 760
e 736 740
e 736 761
e 737 743
e 737 754
e 737 744
e 738 749
e 738 750
e 739 766
e 739 759
e 739 756
e 740 741
e 740 757
e 740 760
e 741 756
e 741 757
e 743 764
e 743 768
e 743 754
e 744 754
e 744 746
e 746 754
e 746 763
e 746 786
e 747 751
e 747 762
e 749 755
e 749 752
e 749 750
e 750 752
e 750 766
e 751 779
e 751 770
e 751 767
e 751 762
e 752 755
e 752 758
e 752 765
e 752 775
e 752 766
e 754 768
e 754 763
e 755 758
e 756 759
e 756 776
e 756 782
e 756 769
e 756 757
e 757 769
e 757 772
e 757 760
e 758 900
e 758 765
e 759 776
e 759 766
e 760 772
e 760 785
e 760 778
e 760 773
e 760 761
e 761 773
e 761 805
e 761 764
e 762 767
e 763 768
e 763 777
e 763 783
e 763 786
e 764 805
e 764 799
e 764 768
e 765 900
e 765 775
e 766 775
e 766 781
e 766 784
e 766 794
e 766 809
e 766 802
e 766 776
e 767 770
e 768 799
e 768 788
e 768 777
e 769 782
e 769 795
e 769 772
e 770 792
e 770 779
e 770 796
e 770 780
e 772 795
e 772 808
e 772 785
e 773 778
e 773 791
e 773 805
e 775 781
e 775 900
e 776 802
e 776 795
e 776 782
e 777 788
e 777 790
e 777 783
e 778 785
e 778 791
e 779 786
e 779 842
e 779 853
e 779 792
e 780 796
e 781 900
e 781 784
e 782 795
e 783 790
e 783 798
e 783 786
e 784 900
e 784 794
e 785 808
e 785 812
e 785 791
e 786 798
e 786 842
e 788 799
e 788 801
e 788 826
e 788 807
e 788 798
e 788 790
e 790 798
e 791 812
e 791 815
e 791 805
e 792 853
e 792 819
e 792 796
e 794 900
e 794 804
e 794 825
e 794 809
e 795 802
e 795 814
e 795 808
e 796 819
e 796 806
e 798 807
e 798 811
e 798 817
e 798 842
e 799 801
e 799 805
e 801 805
e 801 826
e 802 809
e 802 814
e 804 813
e 804 900
e 804 825
e 805 815
e 805 847
e 805 826
e 805 873
e 806 819
e 807 811
e 807 826
e 808 814
e 808 832
e 808 818
e 808 812
e 808 849
e 809 825
e 809 834
e 809 814
e 809 822
e 811 826
e 811 817
e 812 818
e 812 815
e 813 821
e 813 900
e 813 825
e 814 822
e 814 832
e 815 818
e 815 841
e 815 847
e 817 826
e 817 835
e 817 839
e 817 842
e 818 849
e 818 841
e 819 853
e 819 827
e 819 820
e 820 827
e 821 824
e 821 900
e 821 830
e 821 825
e 822 834
e 822 832
e 824 900
e 824 829
e 824 830
e 825 830
e 825 837
e 825 834
e 826 873
e 826 835
e 827 853
e 827 845
e 829 831
e 829 900
e 829 830
e 830 831
e 830 833
e 830 836
e 830 837
e 831 833
e 831 900
e 832 834
e 832 844
e 832 849
e 833 900
e 833 836
e 834 837
e 834 844
e 834 880
e 834 861
e 835 873
e 835 858
e 835 851
e 835 846
e 835 839
e 836 900
e 836 843
e 836 837
e 837 843
e 837 848
e 837 855
e 837 880
e 839 846
e 839 842
e 841 849
e 841 876
e 841 859
e 841 852
e 841 847
e 842 846
e 842 869
e 842 853
e 843 848
e 843 900
e 844 861
e 844 856
e 844 849
e 845 853
e 846 851
e 846 869
e 847 852
e 847 873
e 848 900
e 848 855
e 849 856
e 849 876
e 851 858
e 851 869
e 852 859
e 852 873
e 853 865
e 853 869
e 853 879
e 853 854
e 854 879
e 855 860
e 855 900
e 855 880
e 856 861
e 856 876
e 858 873
e 858 863
e 858 874
e 858 869
e 859 882
e 859 876
e 859 864
e 859 873
e 860 900
e 860 867
e 860 880
e 861 880
e 861 868
e 861 876
e 863 873
e 863 884
e 863 874
e 864 882
e 864 886
e 864 873
e 865 871
e 865 869
e 865 877
e 865 887
e 865 879
e 867 900
e 867 875
e 867 880
e 868 893
e 868 880
e 868 890
e 868 876
e 869 871
e 869 874
e 871 874
e 871 877
e 873 886
e 873 904
e 873 885
e 873 884
e 874 884
e 874 877
e 874 906
e 875 881
e 875 900
e 875 880
e 876 890
e 876 892
e 876 882
e 877 906
e 877 907
e 877 887
e 879 887
e 879 896
e 879 897
e 880 881
e 880 889
e 880 895
e 880 927
e 880 893
e 881 900
e 881 889
e 882 892
e 882 886
e 882 903
e 884 885
e 884 916
e 884 918
e 884 906
e 885 904
e 885 913
e 885 916
e 886 903
e 886 937
e 886 904
e 887 907
e 887 925
e 887 896
e 889 891
e 889 900
e 889 895
e 890 893
e 890 901
e 890 899
e 890 892
e 891 900
e 891 894
e 891 895
e 892 903
e 892 899
e 893 927
e 893 931
e 893 910
e 893 901
e 894 900
e 894 898
e 894 895
e 895 898
e 895 927
e 896 925
e 896 945
e 896 922
e 896 908
e 896 897
e 898 900
e 898 911
e 898 936
e 898 927
e 899 901
e 899 910
e 899 912
e 899 903
e 901 910
e 903 912
e 903 920
e 903 929
e 903 937
e 904 937
e 904 913
e 906 918
e 906 914
e 906 907
e 907 914
e 907 925
e 908 922
e 910 931
e 910 912
e 911 936
e 911 919
e 912 931
e 912 920
e 913 937
e 913 921
e 913 916
e 914 924
e 914 918
e 914 934
e 914 925
e 916 921
e 916 964
e 916 943
e 916 918
e 918 943
e 918 941
e 918 924
e 919 933
e 919 936
e 920 929
e 920 931
e 921 937
e 921 949
e 921 955
e 921 964
e 922 945
e 922 935
e 924 941
e 924 934
e 925 934
e 925 965
e 925 972
e 925 945
e 927 936
e 927 944
e 927 931
e 929 931
e 929 948
e 929 971
e 929 937
e 931 944
e 931 948
e 932 933
e 932 939
e 933 939
e 933 936
e 934 941
e 934 950
e 934 953
e 934 965
e 935 945
e 936 939
e 936 947
e 936 958
e 936 944
e 937 971
e 937 952
e 937 949
e 939 947
e 941 957
e 941 943
e 941 950
e 943 964
e 943 982
e 943 988
e 943 963
e 943 957
e 944 958
e 944 983
e 944 1019
e 944 959
e 944 948
e 944 1004
e 945 972
e 945 960
e 945 956
e 947 958
e 948 959
e 948 971
e 949 952
e 949 961
e 949 955
e 950 957
e 950 963
e 950 985
e 950 953
e 952 961
e 952 971
e 953 985
e 953 968
e 953 965
e 955 961
e 955 987
e 955 991
e 955 967
e 955 964
e 956 960
e 956 962
e 957 963
e 959 1004
e 959 990
e 959 977
e 959 971
e 960 972
e 960 999
e 960 978
e 960 974
e 960 962
e 961 971
e 961 987
e 962 974
e 963 988
e 963 998
e 963 985
e 964 967
e 964 982
e 965 968
e 965 972
e 967 991
e 967 982
e 968 985
e 968 992
e 968 1001
e 968 972
e 971 977
e 971 984
e 971 987
e 972 1001
e 972 1026
e 972 999
e 974 979
e 974 978
e 974 980
e 977 990
e 977 984
e 978 999
e 978 979
e 978 994
e 979 994
e 979 980
e 979 986
e 982 991
e 982 996
e 982 988
e 983 1019
e 984 990
e 984 1009
e 984 987
e 985 998
e 985 992
e 986 994
e 987 1009
e 987 1025
e 987 1010
e 987 991
e 988 996
e 988 1048
e 988 998
e 990 1004
e 990 1009
e 991 1010
e 991 996
e 992 998
e 992 1011
e 992 1006
e 992 1001
e 994 999
e 994 1005
e 994 1002
e 996 1010
e 996 1020
e 996 1048
e 998 1048
e 998 1011
e 999 1026
e 999 1021
e 999 1005
e 1001 1006
e 1001 1026
e 1002 1005
e 1004 1031
e 1004 1019
e 1004 1037
e 1004 1009
e 1005 1021
e 1005 1013
e 1005 1012
e 1006 1011
e 1006 1026
e 1009 1037
e 1009 1025
e 1009 1052
e 1010 1020
e 1010 1025
e 1011 1048
e 1011 1081
e 1011 1026
e 1012 1013
e 1013 1015
e 1013 1021
e 1013 1016
e 1015 1022
e 1015 1021
e 1015 1016
e 1015 1023
e 1016 1023
e 1019 1030
e 1019 1046
e 1019 1031
e 1020 1025
e 1020 1035
e 1020 1042
e 1020 1048
e 1021 1028
e 1021 1026
e 1021 1022
e 1022 1028
e 1022 1027
e 1022 1023
e 1023 1027
e 1023 1029
e 1025 1052
e 1025 1035
e 1026 1081
e 1026 1053
e 1026 1036
e 1026 1028
e 1027 1028
e 1027 1032
e 1027 1029
e 1028 1036
e 1028 1038
e 1028 1032
e 1029 1032
e 1030 1046
e 1031 1046
e 1031 1047
e 1031 1043
e 1031 1037
e 1032 1038
e 1032 1039
e 1035 1052
e 1035 1042
e 1036 1053
e 1036 1040
e 1036 1038
e 1037 1043
e 1037 1062
e 1037 1083
e 1037 1052
e 1038 1040
e 1038 1039
e 1039 1040
e 1040 1053
e 1040 1054
e 1040 1049
e 1040 1044
e 1042 1052
e 1042 1073
e 1042 1067
e 1042 1048
e 1043 1047
e 1043 1061
e 1043 1062
e 1044 1049
e 1046 1051
e 1046 1060
e 1046 1047
e 1047 1060
e 1047 1066
e 1047 1061
e 1048 1067
e 1048 1081
e 1049 1054
e 1049 1055
e 1051 1060
e 1051 1059
e 1052 1083
e 1052 1076
e 1052 1073
e 1053 1081
e 1053 1070
e 1053 1056
e 1053 1054
e 1054 1056
e 1054 1058
e 1054 1055
e 1055 1058
e 1055 1057
e 1056 1070
e 1056 1058
e 1057 1058
e 1057 1068
e 1058 1070
e 1058 1068
e 1059 1065
e 1059 1060
e 1060 1065
e 1060 1066
e 1061 1071
e 1061 1066
e 1061 1062
e 1062 1071
e 1062 1083
e 1065 1082
e 1065 1066
e 1066 1082
e 1066 1071
e 1067 1073
e 1067 1081
e 1068 1070
e 1068 1077
e 1068 1074
e 1070 1081
e 1070 1079
e 1070 1077
e 1071 1082
e 1071 1083
e 1073 1076
e 1073 1081
e 1074 1077
e 1074 1078
e 1076 1083
e 1076 1081
e 1077 1079
e 1077 1078
e 1078 1079
e 1078 1081
e 1079 1081
e 1081 1083
e 1082 1083
e 0 16
e 0 38
e 16 48
e 41 63
e 51 69
e 69 83
e 79 106
e 83 107
e 107 121
e 121 133
e 133 140
e 140 148
e 148 168
e 168 180
e 154 189
e 180 207
e 189 216
e 234 216
e 212 241
e 234 268
e 241 255
e 298 268
e 255 295
e 295 320
e 342 298
e 320 327
e 327 358
e 368 342
e 358 366
e 366 390
e 368 395
e 421 395
e 400 406
e 406 414
e 414 427
e 438 421
e 442 455
e 482 438
e 484 460
e 484 491
e 491 511
e 530 482
e 511 525
e 525 534
e 530 551
e 534 543
e 558 547
e 562 577
e 551 600
e 577 583
e 583 596
e 636 600
e 660 636
e 660 680
e 701 680
e 701 711
e 711 730
e 730 762
e 767 780
e 806 780
e 806 820
e 845 820
e 845 854
e 854 897
e 908 897
e 900 911
e 908 935
e 919 932
e 932 947
e 958 983
e 956 935
e 962 980
e 986 980
e 1002 986
e 1002 1012
e 1012 1016
e 1030 983
e 1029 1039
e 1051 1030
e 1039 1044
e 1044 1055
e 1059 1082
e 1057 1074
